============================[ Problem Statistics ]=============================|                                                                             ||  Number of variables:          4242                                         ||  Number of clauses:           10078                                         ||  Parse time:                   0.48 s                                       ||                                                                             |============================[ Search Statistics ]==============================| Conflicts |          ORIGINAL         |          LEARNT          | Progress ||           |    Vars  Clauses Literals |    Limit  Clauses Lit/Cl |          |===============================================================================|       100 |    1591     6283   743654 |     2303      100     53 | 62.501 % ||       250 |    1591     6283   743654 |     2534      250     75 | 62.495 % |===============================================================================restarts              : 3conflicts             : 263            (363 /sec)decisions             : 527            (0.00 % random) (728 /sec)propagations          : 11778          (16268 /sec)conflict literals     : 20122          (94.85 % deleted)CPU time              : 0.724 sSATISFIABLE